benchmarks_vrp/CMT5/fixed_c/CMT5_3.vrp
NAME: CMT5_3
TYPE: CVRP
COMMENT: 1291.29 - Cluster Nr.3
DIMENSION: 15
CAPACITY: 200
EDGE_WEIGHT_TYPE: EUC_2D
NODE_COORD_TYPE: TWOD_COORDS
NODE_COORD_SECTION: 
15 17 63
11 2 48
12 15 77
6 13 52
4 20 65
9 8 52
3 8 56
8 5 64
14 35 35
10 16 57
7 6 68
5 17 64
1 9 56
13 2 60
2 15 60
DEPOT_SECTION: 
14
-1
DEMAND_SECTION: 
2 17
9 10
14 0
4 12
5 14
8 11
6 36
15 19
13 5
3 27
12 9
10 16
1 13
7 30
11 1
EOF
