benchmarks_vrp/CMT5/fixed_c/CMT5_3.tour
NAME: CMT5_3 solution
TYPE: TOUR
TOUR_SECTION:
14 6 -1
14 10 2 15 5 4 12 7 8 13 3 1 9 11 -1
-1
EOF